;; sequence(s): A17164
;; terms: 0 6561 104976 531441 1679616 4100625 8503056 15752961 26873856 43046721 65610000 96059601 136048896 187388721 252047376 332150625 429981696 547981281 688747536 855036081
;; small program: loop(x * x, 2, loop((x + x) + x, 2, x))
;; fast program: loop(x * x, 2, (2 * (2 * (x + x))) + x)
(set-logic UFNIA)
(declare-fun f0 (Int) Int)
(declare-fun g0 () Int)
(declare-fun f1 (Int) Int)
(declare-fun g1 () Int)
(declare-fun h1 (Int) Int)
(declare-fun u1 (Int Int) Int)
(declare-fun v1 (Int) Int)
(declare-fun h0 (Int) Int)
(declare-fun u0 (Int Int) Int)
(declare-fun v0 (Int) Int)
(declare-fun small (Int) Int)
(declare-fun f2 (Int) Int)
(declare-fun g2 () Int)
(declare-fun h2 (Int) Int)
(declare-fun u2 (Int Int) Int)
(declare-fun v2 (Int) Int)
(declare-fun fast (Int) Int)
(assert (forall ((x Int)) (= (f0 x) (* x x))))
(assert (= g0 2))
(assert (forall ((x Int)) (= (f1 x) (+ (+ x x) x))))
(assert (= g1 2))
(assert (forall ((x Int)) (= (h1 x) x)))
(assert (forall ((x Int) (y Int)) (= (u1 x y) (ite (<= x 0) y (f1 (u1 (- x 1) y))))))
(assert (forall ((x Int)) (= (v1 x) (u1 g1 (h1 x)))))
(assert (forall ((x Int)) (= (h0 x) (v1 x))))
(assert (forall ((x Int) (y Int)) (= (u0 x y) (ite (<= x 0) y (f0 (u0 (- x 1) y))))))
(assert (forall ((x Int)) (= (v0 x) (u0 g0 (h0 x)))))
(assert (forall ((x Int)) (= (small x) (v0 x))))
(assert (forall ((x Int)) (= (f2 x) (* x x))))
(assert (= g2 2))
(assert (forall ((x Int)) (= (h2 x) (+ (* 2 (* 2 (+ x x))) x))))
(assert (forall ((x Int) (y Int)) (= (u2 x y) (ite (<= x 0) y (f2 (u2 (- x 1) y))))))
(assert (forall ((x Int)) (= (v2 x) (u2 g2 (h2 x)))))
(assert (forall ((x Int)) (= (fast x) (v2 x))))
(assert (exists ((c Int)) (and (>= c 0) (not (= (small c) (fast c))))))
(check-sat)
